c 1,2,3,4,5,6,7,8,9
c aigs/expensive/comul9.aig
p cnf 489 1373
-19 1 0
-19 2 0
19 -1 -2 0
-20 3 0
-20 4 0
20 -3 -4 0
-21 19 0
-21 20 0
21 -19 -20 0
-22 2 0
-22 5 0
22 -2 -5 0
-23 1 0
-23 4 0
23 -1 -4 0
-24 22 0
-24 23 0
24 -22 -23 0
-25 -22 0
-25 -23 0
25 22 23 0
-26 -24 0
-26 -25 0
26 24 25 0
-27 21 0
-27 26 0
27 -21 -26 0
-28 -21 0
-28 -26 0
28 21 26 0
-29 -27 0
-29 -28 0
29 27 28 0
-30 3 0
-30 6 0
30 -3 -6 0
-31 29 0
-31 30 0
31 -29 -30 0
-32 -24 0
-32 -27 0
32 24 27 0
-33 2 0
-33 7 0
33 -2 -7 0
-34 4 0
-34 5 0
34 -4 -5 0
-35 33 0
-35 34 0
35 -33 -34 0
-36 -33 0
-36 -34 0
36 33 34 0
-37 -35 0
-37 -36 0
37 35 36 0
-38 -32 0
-38 37 0
38 32 -37 0
-39 32 0
-39 -37 0
39 -32 37 0
-40 -38 0
-40 -39 0
40 38 39 0
-41 1 0
-41 6 0
41 -1 -6 0
-42 40 0
-42 41 0
42 -40 -41 0
-43 -40 0
-43 -41 0
43 40 41 0
-44 -42 0
-44 -43 0
44 42 43 0
-45 31 0
-45 44 0
45 -31 -44 0
-46 -31 0
-46 -44 0
46 31 44 0
-47 -45 0
-47 -46 0
47 45 46 0
-48 3 0
-48 8 0
48 -3 -8 0
-49 47 0
-49 48 0
49 -47 -48 0
-50 -42 0
-50 -45 0
50 42 45 0
-51 -35 0
-51 -38 0
51 35 38 0
-52 2 0
-52 9 0
52 -2 -9 0
-53 4 0
-53 7 0
53 -4 -7 0
-54 52 0
-54 53 0
54 -52 -53 0
-55 -52 0
-55 -53 0
55 52 53 0
-56 -54 0
-56 -55 0
56 54 55 0
-57 -51 0
-57 56 0
57 51 -56 0
-58 51 0
-58 -56 0
58 -51 56 0
-59 -57 0
-59 -58 0
59 57 58 0
-60 5 0
-60 6 0
60 -5 -6 0
-61 59 0
-61 60 0
61 -59 -60 0
-62 -59 0
-62 -60 0
62 59 60 0
-63 -61 0
-63 -62 0
63 61 62 0
-64 -50 0
-64 63 0
64 50 -63 0
-65 50 0
-65 -63 0
65 -50 63 0
-66 -64 0
-66 -65 0
66 64 65 0
-67 1 0
-67 8 0
67 -1 -8 0
-68 66 0
-68 67 0
68 -66 -67 0
-69 -66 0
-69 -67 0
69 66 67 0
-70 -68 0
-70 -69 0
70 68 69 0
-71 49 0
-71 70 0
71 -49 -70 0
-72 -49 0
-72 -70 0
72 49 70 0
-73 -71 0
-73 -72 0
73 71 72 0
-74 3 0
-74 10 0
74 -3 -10 0
-75 73 0
-75 74 0
75 -73 -74 0
-76 -68 0
-76 -71 0
76 68 71 0
-77 -61 0
-77 -64 0
77 61 64 0
-78 -54 0
-78 -57 0
78 54 57 0
-79 2 0
-79 11 0
79 -2 -11 0
-80 4 0
-80 9 0
80 -4 -9 0
-81 79 0
-81 80 0
81 -79 -80 0
-82 -79 0
-82 -80 0
82 79 80 0
-83 -81 0
-83 -82 0
83 81 82 0
-84 -78 0
-84 83 0
84 78 -83 0
-85 78 0
-85 -83 0
85 -78 83 0
-86 -84 0
-86 -85 0
86 84 85 0
-87 6 0
-87 7 0
87 -6 -7 0
-88 86 0
-88 87 0
88 -86 -87 0
-89 -86 0
-89 -87 0
89 86 87 0
-90 -88 0
-90 -89 0
90 88 89 0
-91 -77 0
-91 90 0
91 77 -90 0
-92 77 0
-92 -90 0
92 -77 90 0
-93 -91 0
-93 -92 0
93 91 92 0
-94 5 0
-94 8 0
94 -5 -8 0
-95 93 0
-95 94 0
95 -93 -94 0
-96 -93 0
-96 -94 0
96 93 94 0
-97 -95 0
-97 -96 0
97 95 96 0
-98 -76 0
-98 97 0
98 76 -97 0
-99 76 0
-99 -97 0
99 -76 97 0
-100 -98 0
-100 -99 0
100 98 99 0
-101 1 0
-101 10 0
101 -1 -10 0
-102 100 0
-102 101 0
102 -100 -101 0
-103 -100 0
-103 -101 0
103 100 101 0
-104 -102 0
-104 -103 0
104 102 103 0
-105 75 0
-105 104 0
105 -75 -104 0
-106 -75 0
-106 -104 0
106 75 104 0
-107 -105 0
-107 -106 0
107 105 106 0
-108 3 0
-108 12 0
108 -3 -12 0
-109 107 0
-109 108 0
109 -107 -108 0
-110 -102 0
-110 -105 0
110 102 105 0
-111 -95 0
-111 -98 0
111 95 98 0
-112 -88 0
-112 -91 0
112 88 91 0
-113 -81 0
-113 -84 0
113 81 84 0
-114 2 0
-114 13 0
114 -2 -13 0
-115 4 0
-115 11 0
115 -4 -11 0
-116 114 0
-116 115 0
116 -114 -115 0
-117 -114 0
-117 -115 0
117 114 115 0
-118 -116 0
-118 -117 0
118 116 117 0
-119 -113 0
-119 118 0
119 113 -118 0
-120 113 0
-120 -118 0
120 -113 118 0
-121 -119 0
-121 -120 0
121 119 120 0
-122 6 0
-122 9 0
122 -6 -9 0
-123 121 0
-123 122 0
123 -121 -122 0
-124 -121 0
-124 -122 0
124 121 122 0
-125 -123 0
-125 -124 0
125 123 124 0
-126 -112 0
-126 125 0
126 112 -125 0
-127 112 0
-127 -125 0
127 -112 125 0
-128 -126 0
-128 -127 0
128 126 127 0
-129 7 0
-129 8 0
129 -7 -8 0
-130 128 0
-130 129 0
130 -128 -129 0
-131 -128 0
-131 -129 0
131 128 129 0
-132 -130 0
-132 -131 0
132 130 131 0
-133 -111 0
-133 132 0
133 111 -132 0
-134 111 0
-134 -132 0
134 -111 132 0
-135 -133 0
-135 -134 0
135 133 134 0
-136 5 0
-136 10 0
136 -5 -10 0
-137 135 0
-137 136 0
137 -135 -136 0
-138 -135 0
-138 -136 0
138 135 136 0
-139 -137 0
-139 -138 0
139 137 138 0
-140 -110 0
-140 139 0
140 110 -139 0
-141 110 0
-141 -139 0
141 -110 139 0
-142 -140 0
-142 -141 0
142 140 141 0
-143 1 0
-143 12 0
143 -1 -12 0
-144 142 0
-144 143 0
144 -142 -143 0
-145 -142 0
-145 -143 0
145 142 143 0
-146 -144 0
-146 -145 0
146 144 145 0
-147 109 0
-147 146 0
147 -109 -146 0
-148 -109 0
-148 -146 0
148 109 146 0
-149 -147 0
-149 -148 0
149 147 148 0
-150 3 0
-150 14 0
150 -3 -14 0
-151 149 0
-151 150 0
151 -149 -150 0
-152 -144 0
-152 -147 0
152 144 147 0
-153 -137 0
-153 -140 0
153 137 140 0
-154 -130 0
-154 -133 0
154 130 133 0
-155 -123 0
-155 -126 0
155 123 126 0
-156 -116 0
-156 -119 0
156 116 119 0
-157 2 0
-157 15 0
157 -2 -15 0
-158 4 0
-158 13 0
158 -4 -13 0
-159 157 0
-159 158 0
159 -157 -158 0
-160 -157 0
-160 -158 0
160 157 158 0
-161 -159 0
-161 -160 0
161 159 160 0
-162 -156 0
-162 161 0
162 156 -161 0
-163 156 0
-163 -161 0
163 -156 161 0
-164 -162 0
-164 -163 0
164 162 163 0
-165 6 0
-165 11 0
165 -6 -11 0
-166 164 0
-166 165 0
166 -164 -165 0
-167 -164 0
-167 -165 0
167 164 165 0
-168 -166 0
-168 -167 0
168 166 167 0
-169 -155 0
-169 168 0
169 155 -168 0
-170 155 0
-170 -168 0
170 -155 168 0
-171 -169 0
-171 -170 0
171 169 170 0
-172 8 0
-172 9 0
172 -8 -9 0
-173 171 0
-173 172 0
173 -171 -172 0
-174 -171 0
-174 -172 0
174 171 172 0
-175 -173 0
-175 -174 0
175 173 174 0
-176 -154 0
-176 175 0
176 154 -175 0
-177 154 0
-177 -175 0
177 -154 175 0
-178 -176 0
-178 -177 0
178 176 177 0
-179 7 0
-179 10 0
179 -7 -10 0
-180 178 0
-180 179 0
180 -178 -179 0
-181 -178 0
-181 -179 0
181 178 179 0
-182 -180 0
-182 -181 0
182 180 181 0
-183 -153 0
-183 182 0
183 153 -182 0
-184 153 0
-184 -182 0
184 -153 182 0
-185 -183 0
-185 -184 0
185 183 184 0
-186 5 0
-186 12 0
186 -5 -12 0
-187 185 0
-187 186 0
187 -185 -186 0
-188 -185 0
-188 -186 0
188 185 186 0
-189 -187 0
-189 -188 0
189 187 188 0
-190 -152 0
-190 189 0
190 152 -189 0
-191 152 0
-191 -189 0
191 -152 189 0
-192 -190 0
-192 -191 0
192 190 191 0
-193 1 0
-193 14 0
193 -1 -14 0
-194 192 0
-194 193 0
194 -192 -193 0
-195 -192 0
-195 -193 0
195 192 193 0
-196 -194 0
-196 -195 0
196 194 195 0
-197 151 0
-197 196 0
197 -151 -196 0
-198 -151 0
-198 -196 0
198 151 196 0
-199 -197 0
-199 -198 0
199 197 198 0
-200 3 0
-200 16 0
200 -3 -16 0
-201 199 0
-201 200 0
201 -199 -200 0
-202 -194 0
-202 -197 0
202 194 197 0
-203 -187 0
-203 -190 0
203 187 190 0
-204 -180 0
-204 -183 0
204 180 183 0
-205 -173 0
-205 -176 0
205 173 176 0
-206 -166 0
-206 -169 0
206 166 169 0
-207 -159 0
-207 -162 0
207 159 162 0
-208 2 0
-208 17 0
208 -2 -17 0
-209 4 0
-209 15 0
209 -4 -15 0
-210 208 0
-210 209 0
210 -208 -209 0
-211 -208 0
-211 -209 0
211 208 209 0
-212 -210 0
-212 -211 0
212 210 211 0
-213 -207 0
-213 212 0
213 207 -212 0
-214 207 0
-214 -212 0
214 -207 212 0
-215 -213 0
-215 -214 0
215 213 214 0
-216 6 0
-216 13 0
216 -6 -13 0
-217 215 0
-217 216 0
217 -215 -216 0
-218 -215 0
-218 -216 0
218 215 216 0
-219 -217 0
-219 -218 0
219 217 218 0
-220 -206 0
-220 219 0
220 206 -219 0
-221 206 0
-221 -219 0
221 -206 219 0
-222 -220 0
-222 -221 0
222 220 221 0
-223 8 0
-223 11 0
223 -8 -11 0
-224 222 0
-224 223 0
224 -222 -223 0
-225 -222 0
-225 -223 0
225 222 223 0
-226 -224 0
-226 -225 0
226 224 225 0
-227 -205 0
-227 226 0
227 205 -226 0
-228 205 0
-228 -226 0
228 -205 226 0
-229 -227 0
-229 -228 0
229 227 228 0
-230 9 0
-230 10 0
230 -9 -10 0
-231 229 0
-231 230 0
231 -229 -230 0
-232 -229 0
-232 -230 0
232 229 230 0
-233 -231 0
-233 -232 0
233 231 232 0
-234 -204 0
-234 233 0
234 204 -233 0
-235 204 0
-235 -233 0
235 -204 233 0
-236 -234 0
-236 -235 0
236 234 235 0
-237 7 0
-237 12 0
237 -7 -12 0
-238 236 0
-238 237 0
238 -236 -237 0
-239 -236 0
-239 -237 0
239 236 237 0
-240 -238 0
-240 -239 0
240 238 239 0
-241 -203 0
-241 240 0
241 203 -240 0
-242 203 0
-242 -240 0
242 -203 240 0
-243 -241 0
-243 -242 0
243 241 242 0
-244 5 0
-244 14 0
244 -5 -14 0
-245 243 0
-245 244 0
245 -243 -244 0
-246 -243 0
-246 -244 0
246 243 244 0
-247 -245 0
-247 -246 0
247 245 246 0
-248 -202 0
-248 247 0
248 202 -247 0
-249 202 0
-249 -247 0
249 -202 247 0
-250 -248 0
-250 -249 0
250 248 249 0
-251 1 0
-251 16 0
251 -1 -16 0
-252 250 0
-252 251 0
252 -250 -251 0
-253 -250 0
-253 -251 0
253 250 251 0
-254 -252 0
-254 -253 0
254 252 253 0
-255 201 0
-255 254 0
255 -201 -254 0
-256 -201 0
-256 -254 0
256 201 254 0
-257 -255 0
-257 -256 0
257 255 256 0
-258 3 0
-258 18 0
258 -3 -18 0
-259 257 0
-259 258 0
259 -257 -258 0
-260 -257 0
-260 -258 0
260 257 258 0
-261 -259 0
-261 -260 0
261 259 260 0
-262 21 0
-262 26 0
262 -21 -26 0
-263 -21 0
-263 -26 0
263 21 26 0
-264 -262 0
-264 -263 0
264 262 263 0
-265 30 0
-265 264 0
265 -30 -264 0
-266 -24 0
-266 -262 0
266 24 262 0
-267 37 0
-267 -266 0
267 -37 266 0
-268 -37 0
-268 266 0
268 37 -266 0
-269 -267 0
-269 -268 0
269 267 268 0
-270 41 0
-270 269 0
270 -41 -269 0
-271 -41 0
-271 -269 0
271 41 269 0
-272 -270 0
-272 -271 0
272 270 271 0
-273 265 0
-273 272 0
273 -265 -272 0
-274 -265 0
-274 -272 0
274 265 272 0
-275 -273 0
-275 -274 0
275 273 274 0
-276 48 0
-276 275 0
276 -48 -275 0
-277 -270 0
-277 -273 0
277 270 273 0
-278 -35 0
-278 -267 0
278 35 267 0
-279 56 0
-279 -278 0
279 -56 278 0
-280 -56 0
-280 278 0
280 56 -278 0
-281 -279 0
-281 -280 0
281 279 280 0
-282 60 0
-282 281 0
282 -60 -281 0
-283 -60 0
-283 -281 0
283 60 281 0
-284 -282 0
-284 -283 0
284 282 283 0
-285 -277 0
-285 284 0
285 277 -284 0
-286 277 0
-286 -284 0
286 -277 284 0
-287 -285 0
-287 -286 0
287 285 286 0
-288 67 0
-288 287 0
288 -67 -287 0
-289 -67 0
-289 -287 0
289 67 287 0
-290 -288 0
-290 -289 0
290 288 289 0
-291 276 0
-291 290 0
291 -276 -290 0
-292 -276 0
-292 -290 0
292 276 290 0
-293 -291 0
-293 -292 0
293 291 292 0
-294 74 0
-294 293 0
294 -74 -293 0
-295 -288 0
-295 -291 0
295 288 291 0
-296 -282 0
-296 -285 0
296 282 285 0
-297 -54 0
-297 -279 0
297 54 279 0
-298 83 0
-298 -297 0
298 -83 297 0
-299 -83 0
-299 297 0
299 83 -297 0
-300 -298 0
-300 -299 0
300 298 299 0
-301 87 0
-301 300 0
301 -87 -300 0
-302 -87 0
-302 -300 0
302 87 300 0
-303 -301 0
-303 -302 0
303 301 302 0
-304 -296 0
-304 303 0
304 296 -303 0
-305 296 0
-305 -303 0
305 -296 303 0
-306 -304 0
-306 -305 0
306 304 305 0
-307 94 0
-307 306 0
307 -94 -306 0
-308 -94 0
-308 -306 0
308 94 306 0
-309 -307 0
-309 -308 0
309 307 308 0
-310 -295 0
-310 309 0
310 295 -309 0
-311 295 0
-311 -309 0
311 -295 309 0
-312 -310 0
-312 -311 0
312 310 311 0
-313 101 0
-313 312 0
313 -101 -312 0
-314 -101 0
-314 -312 0
314 101 312 0
-315 -313 0
-315 -314 0
315 313 314 0
-316 294 0
-316 315 0
316 -294 -315 0
-317 -294 0
-317 -315 0
317 294 315 0
-318 -316 0
-318 -317 0
318 316 317 0
-319 108 0
-319 318 0
319 -108 -318 0
-320 -313 0
-320 -316 0
320 313 316 0
-321 -307 0
-321 -310 0
321 307 310 0
-322 -301 0
-322 -304 0
322 301 304 0
-323 -81 0
-323 -298 0
323 81 298 0
-324 118 0
-324 -323 0
324 -118 323 0
-325 -118 0
-325 323 0
325 118 -323 0
-326 -324 0
-326 -325 0
326 324 325 0
-327 122 0
-327 326 0
327 -122 -326 0
-328 -122 0
-328 -326 0
328 122 326 0
-329 -327 0
-329 -328 0
329 327 328 0
-330 -322 0
-330 329 0
330 322 -329 0
-331 322 0
-331 -329 0
331 -322 329 0
-332 -330 0
-332 -331 0
332 330 331 0
-333 129 0
-333 332 0
333 -129 -332 0
-334 -129 0
-334 -332 0
334 129 332 0
-335 -333 0
-335 -334 0
335 333 334 0
-336 -321 0
-336 335 0
336 321 -335 0
-337 321 0
-337 -335 0
337 -321 335 0
-338 -336 0
-338 -337 0
338 336 337 0
-339 136 0
-339 338 0
339 -136 -338 0
-340 -136 0
-340 -338 0
340 136 338 0
-341 -339 0
-341 -340 0
341 339 340 0
-342 -320 0
-342 341 0
342 320 -341 0
-343 320 0
-343 -341 0
343 -320 341 0
-344 -342 0
-344 -343 0
344 342 343 0
-345 143 0
-345 344 0
345 -143 -344 0
-346 -143 0
-346 -344 0
346 143 344 0
-347 -345 0
-347 -346 0
347 345 346 0
-348 319 0
-348 347 0
348 -319 -347 0
-349 -319 0
-349 -347 0
349 319 347 0
-350 -348 0
-350 -349 0
350 348 349 0
-351 150 0
-351 350 0
351 -150 -350 0
-352 -345 0
-352 -348 0
352 345 348 0
-353 -339 0
-353 -342 0
353 339 342 0
-354 -333 0
-354 -336 0
354 333 336 0
-355 -327 0
-355 -330 0
355 327 330 0
-356 -116 0
-356 -324 0
356 116 324 0
-357 161 0
-357 -356 0
357 -161 356 0
-358 -161 0
-358 356 0
358 161 -356 0
-359 -357 0
-359 -358 0
359 357 358 0
-360 165 0
-360 359 0
360 -165 -359 0
-361 -165 0
-361 -359 0
361 165 359 0
-362 -360 0
-362 -361 0
362 360 361 0
-363 -355 0
-363 362 0
363 355 -362 0
-364 355 0
-364 -362 0
364 -355 362 0
-365 -363 0
-365 -364 0
365 363 364 0
-366 172 0
-366 365 0
366 -172 -365 0
-367 -172 0
-367 -365 0
367 172 365 0
-368 -366 0
-368 -367 0
368 366 367 0
-369 -354 0
-369 368 0
369 354 -368 0
-370 354 0
-370 -368 0
370 -354 368 0
-371 -369 0
-371 -370 0
371 369 370 0
-372 179 0
-372 371 0
372 -179 -371 0
-373 -179 0
-373 -371 0
373 179 371 0
-374 -372 0
-374 -373 0
374 372 373 0
-375 -353 0
-375 374 0
375 353 -374 0
-376 353 0
-376 -374 0
376 -353 374 0
-377 -375 0
-377 -376 0
377 375 376 0
-378 186 0
-378 377 0
378 -186 -377 0
-379 -186 0
-379 -377 0
379 186 377 0
-380 -378 0
-380 -379 0
380 378 379 0
-381 -352 0
-381 380 0
381 352 -380 0
-382 352 0
-382 -380 0
382 -352 380 0
-383 -381 0
-383 -382 0
383 381 382 0
-384 193 0
-384 383 0
384 -193 -383 0
-385 -193 0
-385 -383 0
385 193 383 0
-386 -384 0
-386 -385 0
386 384 385 0
-387 351 0
-387 386 0
387 -351 -386 0
-388 -351 0
-388 -386 0
388 351 386 0
-389 -387 0
-389 -388 0
389 387 388 0
-390 200 0
-390 389 0
390 -200 -389 0
-391 -384 0
-391 -387 0
391 384 387 0
-392 -378 0
-392 -381 0
392 378 381 0
-393 -372 0
-393 -375 0
393 372 375 0
-394 -366 0
-394 -369 0
394 366 369 0
-395 -360 0
-395 -363 0
395 360 363 0
-396 -159 0
-396 -357 0
396 159 357 0
-397 212 0
-397 -396 0
397 -212 396 0
-398 -212 0
-398 396 0
398 212 -396 0
-399 -397 0
-399 -398 0
399 397 398 0
-400 216 0
-400 399 0
400 -216 -399 0
-401 -216 0
-401 -399 0
401 216 399 0
-402 -400 0
-402 -401 0
402 400 401 0
-403 -395 0
-403 402 0
403 395 -402 0
-404 395 0
-404 -402 0
404 -395 402 0
-405 -403 0
-405 -404 0
405 403 404 0
-406 223 0
-406 405 0
406 -223 -405 0
-407 -223 0
-407 -405 0
407 223 405 0
-408 -406 0
-408 -407 0
408 406 407 0
-409 -394 0
-409 408 0
409 394 -408 0
-410 394 0
-410 -408 0
410 -394 408 0
-411 -409 0
-411 -410 0
411 409 410 0
-412 230 0
-412 411 0
412 -230 -411 0
-413 -230 0
-413 -411 0
413 230 411 0
-414 -412 0
-414 -413 0
414 412 413 0
-415 -393 0
-415 414 0
415 393 -414 0
-416 393 0
-416 -414 0
416 -393 414 0
-417 -415 0
-417 -416 0
417 415 416 0
-418 237 0
-418 417 0
418 -237 -417 0
-419 -237 0
-419 -417 0
419 237 417 0
-420 -418 0
-420 -419 0
420 418 419 0
-421 -392 0
-421 420 0
421 392 -420 0
-422 392 0
-422 -420 0
422 -392 420 0
-423 -421 0
-423 -422 0
423 421 422 0
-424 244 0
-424 423 0
424 -244 -423 0
-425 -244 0
-425 -423 0
425 244 423 0
-426 -424 0
-426 -425 0
426 424 425 0
-427 -391 0
-427 426 0
427 391 -426 0
-428 391 0
-428 -426 0
428 -391 426 0
-429 -427 0
-429 -428 0
429 427 428 0
-430 251 0
-430 429 0
430 -251 -429 0
-431 -251 0
-431 -429 0
431 251 429 0
-432 -430 0
-432 -431 0
432 430 431 0
-433 390 0
-433 432 0
433 -390 -432 0
-434 -390 0
-434 -432 0
434 390 432 0
-435 -433 0
-435 -434 0
435 433 434 0
-436 258 0
-436 435 0
436 -258 -435 0
-437 -258 0
-437 -435 0
437 258 435 0
-438 -436 0
-438 -437 0
438 436 437 0
439 -261 438 0
440 261 -438 0
-441 -439 0
-441 -440 0
-442 -199 0
-442 -200 0
442 199 200 0
-443 -201 0
-443 -442 0
443 201 442 0
-444 -200 0
-444 -389 0
444 200 389 0
-445 -390 0
-445 -444 0
445 390 444 0
446 -443 445 0
447 443 -445 0
-448 -446 0
-448 -447 0
-449 441 0
-449 448 0
-450 -149 0
-450 -150 0
450 149 150 0
-451 -151 0
-451 -450 0
451 151 450 0
-452 -150 0
-452 -350 0
452 150 350 0
-453 -351 0
-453 -452 0
453 351 452 0
454 -451 453 0
455 451 -453 0
-456 -454 0
-456 -455 0
-457 449 0
-457 456 0
-458 -107 0
-458 -108 0
458 107 108 0
-459 -109 0
-459 -458 0
459 109 458 0
-460 -108 0
-460 -318 0
460 108 318 0
-461 -319 0
-461 -460 0
461 319 460 0
462 -459 461 0
463 459 -461 0
-464 -462 0
-464 -463 0
-465 457 0
-465 464 0
-466 -73 0
-466 -74 0
466 73 74 0
-467 -75 0
-467 -466 0
467 75 466 0
-468 -74 0
-468 -293 0
468 74 293 0
-469 -294 0
-469 -468 0
469 294 468 0
470 -467 469 0
471 467 -469 0
-472 -470 0
-472 -471 0
-473 465 0
-473 472 0
-474 -47 0
-474 -48 0
474 47 48 0
-475 -49 0
-475 -474 0
475 49 474 0
-476 -48 0
-476 -275 0
476 48 275 0
-477 -276 0
-477 -476 0
477 276 476 0
478 -475 477 0
479 475 -477 0
-480 -478 0
-480 -479 0
-481 473 0
-481 480 0
-482 -29 0
-482 -30 0
482 29 30 0
-483 -31 0
-483 -482 0
483 31 482 0
-484 -30 0
-484 -264 0
484 30 264 0
-485 -265 0
-485 -484 0
485 265 484 0
486 -483 485 0
487 483 -485 0
-488 -486 0
-488 -487 0
-489 481 0
-489 488 0
489 0
